results/res_prop_muc/res_Cimatti_mathsat_cores/QF_RDL/abz5_1200.smt.smt2.out
### boolMucExtractionTime 9394267
