results/res_prop_muc/res_Cimatti_mathsat_cores/QF_RDL/abz5_1200.smt.smt2.res
unsat
( c0
  c1
  c10
  c11
  c116
  c12
  c121
  c123
  c124
  c13
  c14
  c141
  c142
  c149
  c15
  c155
  c16
  c161
  c169
  c17
  c170
  c18
  c19
  c197
  c2
  c20
  c200
  c203
  c204
  c205
  c206
  c207
  c21
  c211
  c212
  c213
  c214
  c215
  c22
  c220
  c23
  c230
  c231
  c232
  c233
  c235
  c236
  c237
  c239
  c24
  c240
  c242
  c246
  c249
  c25
  c26
  c264
  c27
  c28
  c284
  c287
  c29
  c290
  c293
  c294
  c295
  c296
  c3
  c30
  c300
  c301
  c302
  c303
  c304
  c305
  c31
  c314
  c316
  c318
  c32
  c320
  c321
  c322
  c325
  c326
  c327
  c329
  c33
  c330
  c336
  c339
  c34
  c341
  c342
  c35
  c356
  c357
  c36
  c366
  c367
  c37
  c371
  c374
  c375
  c377
  c38
  c380
  c384
  c386
  c387
  c39
  c394
  c395
  c4
  c40
  c401
  c404
  c41
  c411
  c416
  c417
  c42
  c422
  c425
  c428
  c429
  c43
  c431
  c436
  c437
  c439
  c44
  c444
  c45
  c455
  c46
  c461
  c47
  c473
  c474
  c48
  c481
  c482
  c483
  c484
  c485
  c49
  c5
  c50
  c500
  c501
  c505
  c506
  c507
  c509
  c51
  c510
  c512
  c515
  c518
  c519
  c52
  c521
  c522
  c528
  c529
  c53
  c530
  c54
  c55
  c550
  c551
  c552
  c554
  c555
  c557
  c56
  c560
  c57
  c58
  c59
  c6
  c60
  c61
  c62
  c63
  c64
  c65
  c66
  c67
  c68
  c69
  c7
  c70
  c71
  c72
  c73
  c74
  c75
  c76
  c77
  c78
  c79
  c8
  c80
  c81
  c82
  c83
  c84
  c85
  c86
  c87
  c88
  c89
  c9
  c90
  c91
  c92
  c93
  c94
  c95
  c96
  c97
  c98 )
